
--- Job EJERCICIO TRANS.gms Start 04/27/21 18:02:15 34.3.0 rac355f3 WEX-WEI x86 64bit/MS Windows
--- Applying:
    C:\GAMS\34\gmsprmNT.txt
--- GAMS Parameters defined
    Input "D:\OneDrive - Universidad de Pamplona\Optimización de Procesos\Programas GAMS\EJERCICIO TRANS.gms"
    PageWidth 80
    PageSize 0
    PageContr 3
    Action CE
    ScrDir "D:\OneDrive - Universidad de Pamplona\Optimización de Procesos\Programas GAMS\225a\"
    SysDir C:\GAMS\34\
    WorkDir "D:\OneDrive - Universidad de Pamplona\Optimización de Procesos\Programas GAMS\"
    LogOption 3
    DFormat 0
    TFormat 0
    ErrorLog 99
    IDE 1
Licensee: GAMS Demo license for Andres Sierra            G210406|0002CO-GEN
          Universidad de Pamplona, Colombia                        DL037498
          C:\GAMS\34\gamslice.txt
          andrew.lol.serra@gmail.com, Andres Sierra                        
          Demo license for demonstration and instructional purposes only
GAMS 34.3.0   Copyright (C) 1987-2021 GAMS Development. All rights reserved
--- Starting compilation
--- EJERCICIO TRANS.gms(46) 3 Mb
--- Starting execution: elapsed 0:00:00.104
--- EJERCICIO TRANS.gms(27) 4 Mb
--- Generating LP model TRANS1
--- EJERCICIO TRANS.gms(45) 4 Mb
---   6 rows  7 columns  19 non-zeroes
--- Executing CPLEX (Solvelink=2): elapsed 0:00:00.165

IBM ILOG CPLEX   34.3.0 rac355f3 Released Feb 25, 2021 WEI x86 64bit/MS Window

--- *** This solver runs with a demo license. No commercial use.
--- GMO memory 0.50 Mb (peak 0.50 Mb)
--- Dictionary memory 0.00 Mb
--- Cplex 20.1.0.0 link memory 0.00 Mb (peak 0.00 Mb)
--- Starting Cplex

Version identifier: 20.1.0.0 | 2020-11-10 | 9bedb6d68
CPXPARAM_Advance                                 0
CPXPARAM_Simplex_Display                         2
CPXPARAM_Threads                                 1
CPXPARAM_MIP_Display                             4
CPXPARAM_MIP_Tolerances_AbsMIPGap                0
Tried aggregator 1 time.
LP Presolve eliminated 0 rows and 1 columns.
Reduced LP has 5 rows, 6 columns, and 12 nonzeros.
Presolve time = 0.00 sec. (0.00 ticks)

Iteration      Dual Objective            In Variable           Out Variable
     1          638625.000000             X(BOY,BOG)     DEMANDA(BOG) slack
     2         1678125.000000             X(BOY,BUG)     DEMANDA(BUG) slack
     3         2281750.000000             X(CUC,PAM)     DEMANDA(PAM) slack
     4         2299875.000000             X(CUC,BOG)      OFERTA(BOY) slack

--- LP status (1): optimal.
--- Cplex Time: 0.08sec (det. 0.01 ticks)


Optimal solution found
Objective:      2299875.000000

--- Reading solution for model TRANS1
--- Executing after solve: elapsed 0:00:01.738
--- EJERCICIO TRANS.gms(46) 4 Mb
*** Status: Normal completion
--- Job EJERCICIO TRANS.gms Stop 04/27/21 18:02:17 elapsed 0:00:01.752
